#######################################
### Exact MIP solver for the HHCRSP ###
#######################################
-- Instance file: new-instances/HHCRSP_75_15_67_0.8_C_RC.txt
-- Max threads: 4
-- Time limit: 999999 seconds
-- Use initial solution: No
Trivial flow violations prevented generating 18725 variables.
Model exported.
Version identifier: 20.1.0.0 | 2020-11-10 | 9bedb6d68
CPXPARAM_Threads                                 4
CPXPARAM_TimeLimit                               999999
Parallel mode: deterministic, using up to 4 threads for concurrent optimization:
 * Starting dual Simplex on 1 thread...
 * Starting Barrier on 3 threads...
Tried aggregator 1 time.
LP Presolve eliminated 3138 rows and 856 columns.
Reduced LP has 24074 rows, 23236 columns, and 234433 nonzeros.
Presolve time = 0.11 sec. (64.63 ticks)
Symmetry aggregator did 30388 additional substitutions.

Iteration log . . .
Iteration:     1   Dual objective     =             0.000000

Dual crossover.
  Dual:  Fixing 157 variables.
      156 DMoves:  Infeasibility  4.42978987e-14  Objective  1.45666667e+02
        0 DMoves:  Infeasibility  4.52970994e-14  Objective  1.45666667e+02
  Dual:  Pushed 3, exchanged 154.
  Primal:  Fixing 86 variables.
       85 PMoves:  Infeasibility  0.00000000e+00  Objective  1.45666667e+02
        0 PMoves:  Infeasibility  0.00000000e+00  Objective  1.45666667e+02
  Primal:  Pushed 48, exchanged 38.

Dual simplex solved model.


Solution status from MIP model:
-- Processing time: 0.196 sec.
-- Memory used: 83.9492 MB
-- Best bound: inf
-- Obj value: 145.667
-- Gap: inf%
-- Total distance: 437
-- Total tardiness: 0
-- Largest tardiness: 0
